c ind 1 2 3 4 5 6 7 8 9 10 11 12 13 14 15 16 17 18 19 20 0
p cnf 221 349               
1 2 3 -21 0
21 -166 0
-7 -6 -22 0
22 -26 0
-6 23 0
-7 23 0
6 7 -23 0
-23 -8 -24 0
24 -26 0
-8 25 0
-23 25 0
8 23 -25 0
25 -26 0
26 -31 0
-6 1 -27 0
27 -30 0
-7 2 -28 0
28 -30 0
-8 3 -29 0
29 -30 0
30 -31 0
-4 31 -32 0
32 -44 0
-10 -9 -33 0
33 -37 0
-9 34 0
-10 34 0
9 10 -34 0
-34 -11 -35 0
35 -37 0
-11 36 0
-34 36 0
11 34 -36 0
36 -37 0
37 -42 0
-9 1 -38 0
38 -41 0
-10 2 -39 0
39 -41 0
-11 3 -40 0
40 -41 0
41 -42 0
-5 42 -43 0
43 -44 0
44 -166 0
-25 4 -45 0
45 -47 0
-36 5 -46 0
46 -47 0
47 -166 0
-13 -12 -48 0
48 -52 0
-12 49 0
-13 49 0
12 13 -49 0
-49 -14 -50 0
50 -52 0
-14 51 0
-49 51 0
14 49 -51 0
51 -52 0
52 -56 0
-13 4 -53 0
53 -55 0
-14 5 -54 0
54 -55 0
55 -56 0
-4 56 -57 0
57 -68 0
-16 -15 -58 0
58 -62 0
-15 59 0
-16 59 0
15 16 -59 0
-59 -17 -60 0
60 -62 0
-17 61 0
-59 61 0
17 59 -61 0
61 -62 0
62 -66 0
-16 4 -63 0
63 -65 0
-17 5 -64 0
64 -65 0
65 -66 0
-5 66 -67 0
67 -68 0
68 -166 0
-51 4 -69 0
69 -71 0
-61 5 -70 0
70 -71 0
71 -166 0
4 -77 0
12 -73 0
-14 -72 0
-13 -72 0
72 -73 0
73 -76 0
6 -75 0
-8 -74 0
-7 -74 0
74 -75 0
75 -76 0
76 -77 0
5 -83 0
15 -79 0
-17 -78 0
-16 -78 0
78 -79 0
79 -82 0
9 -81 0
-11 -80 0
-10 -80 0
80 -81 0
81 -82 0
82 -83 0
77 83 -84 0
-1 84 -85 0
85 -156 0
4 -89 0
73 -88 0
7 -87 0
-8 -86 0
-6 -86 0
86 -87 0
87 -88 0
88 -89 0
5 -93 0
79 -92 0
10 -91 0
-11 -90 0
-9 -90 0
90 -91 0
91 -92 0
92 -93 0
89 93 -94 0
-2 94 -95 0
95 -156 0
4 -99 0
73 -98 0
8 -97 0
-7 -96 0
-6 -96 0
96 -97 0
97 -98 0
98 -99 0
5 -103 0
79 -102 0
11 -101 0
-10 -100 0
-9 -100 0
100 -101 0
101 -102 0
102 -103 0
99 103 -104 0
-3 104 -105 0
105 -156 0
-4 -1 -106 0
4 -110 0
75 -109 0
13 -108 0
-14 -107 0
-12 -107 0
107 -108 0
108 -109 0
109 -110 0
5 -114 0
81 -113 0
16 -112 0
-17 -111 0
-15 -111 0
111 -112 0
112 -113 0
113 -114 0
110 114 -115 0
106 115 -116 0
116 -156 0
-4 -2 -117 0
4 -119 0
87 -118 0
108 -118 0
118 -119 0
5 -121 0
91 -120 0
112 -120 0
120 -121 0
119 121 -122 0
117 122 -123 0
123 -156 0
-4 -3 -124 0
4 -126 0
97 -125 0
108 -125 0
125 -126 0
5 -128 0
101 -127 0
112 -127 0
127 -128 0
126 128 -129 0
124 129 -130 0
130 -156 0
-5 -1 -131 0
4 -135 0
75 -134 0
14 -133 0
-13 -132 0
-12 -132 0
132 -133 0
133 -134 0
134 -135 0
5 -139 0
81 -138 0
17 -137 0
-16 -136 0
-15 -136 0
136 -137 0
137 -138 0
138 -139 0
135 139 -140 0
131 140 -141 0
141 -156 0
-5 -2 -142 0
4 -144 0
87 -143 0
133 -143 0
143 -144 0
5 -146 0
91 -145 0
137 -145 0
145 -146 0
144 146 -147 0
142 147 -148 0
148 -156 0
-5 -3 -149 0
4 -151 0
97 -150 0
133 -150 0
150 -151 0
5 -153 0
101 -152 0
137 -152 0
152 -153 0
151 153 -154 0
149 154 -155 0
155 -156 0
156 -166 0
-19 4 -157 0
157 -159 0
-20 5 -158 0
158 -159 0
159 -165 0
-19 -18 -160 0
160 -164 0
-18 161 0
-19 161 0
18 19 -161 0
-161 -20 -162 0
162 -164 0
20 161 -163 0
163 -164 0
164 -165 0
165 -166 0
-1 2 -167 0
167 -177 0
-1 -2 168 0
1 2 168 0
-2 2 168 0
-6 7 -169 0
-168 169 -170 0
170 -177 0
-6 -7 171 0
6 7 171 0
-7 7 171 0
-168 -171 172 0
-9 10 -173 0
-172 173 -174 0
174 -177 0
177 -220 0
-2 3 -178 0
178 -188 0
-2 -3 179 0
2 3 179 0
-3 3 179 0
-7 8 -180 0
-179 180 -181 0
181 -188 0
-7 -8 182 0
7 8 182 0
-8 8 182 0
-179 -182 183 0
-10 11 -184 0
-183 184 -185 0
185 -188 0
188 -220 0
-19 20 -189 0
189 -219 0
-19 -20 190 0
19 20 190 0
-20 20 190 0
-4 5 -191 0
-190 191 -192 0
192 -219 0
-4 -5 193 0
4 5 193 0
-5 5 193 0
-190 -193 194 0
-6 9 -195 0
-194 195 -196 0
196 -219 0
-6 -9 197 0
6 9 197 0
-9 9 197 0
-194 -197 198 0
-7 10 -199 0
-198 199 -200 0
200 -219 0
-7 -10 201 0
7 10 201 0
-10 10 201 0
-198 -201 202 0
-8 11 -203 0
-202 203 -204 0
204 -219 0
-8 -11 205 0
8 11 205 0
-11 11 205 0
-202 -205 206 0
-12 15 -207 0
-206 207 -208 0
208 -219 0
-12 -15 209 0
12 15 209 0
-15 15 209 0
-206 -209 210 0
-13 17 -211 0
-210 211 -212 0
212 -219 0
-13 -17 213 0
13 17 213 0
-17 17 213 0
-210 -213 214 0
-14 16 -215 0
-214 215 -216 0
216 -219 0
219 -220 0
166 0
220 0
